% seed = 0

mint = 20;
% maxt = 73;

nActs = 32;
dur = [0,4,2,1,2,3,3,3,1,6,1,3,1,2,2,2,1,5,3,4,3,1,1,2,2,2,2,3,2,2,4,0];

nSkills = 7;
sreq = [| 0,0,0,0,0,0,0,
	| 0,1,1,0,0,1,0,
	| 0,0,0,0,0,0,1,
	| 0,0,3,0,0,1,0,
	| 1,0,0,0,0,0,0,
	| 1,0,2,0,0,2,1,
	| 1,0,1,1,0,1,0,
	| 0,0,2,0,0,1,0,
	| 0,0,0,0,0,0,1,
	| 1,0,2,2,0,0,1,
	| 0,1,0,1,0,0,0,
	| 0,1,2,1,0,0,1,
	| 1,0,4,1,0,0,1,
	| 0,0,0,1,0,1,0,
	| 0,0,2,2,0,1,0,
	| 1,1,0,1,0,1,2,
	| 0,0,0,1,0,1,0,
	| 0,0,1,1,0,1,0,
	| 0,1,2,0,0,3,0,
	| 0,0,0,1,0,0,0,
	| 2,0,1,0,0,0,1,
	| 0,1,2,2,0,0,0,
	| 0,1,0,1,0,1,0,
	| 0,0,1,4,1,1,0,
	| 0,0,2,1,0,0,0,
	| 0,1,0,0,0,0,0,
	| 0,0,0,0,0,1,0,
	| 0,1,1,1,0,1,1,
	| 3,1,0,0,0,1,0,
	| 1,1,2,2,0,0,0,
	| 2,1,0,2,0,0,1,
	| 0,0,0,0,0,0,0, |];

% SumOfsreq = 114;

nResources = 10;
mastery = [| true,false,true,true,false,false,false,
	| false,false,true,true,false,true,false,
	| false,false,true,false,false,true,true,
	| false,false,false,false,true,true,true,
	| true,false,true,true,false,false,false,
	| false,false,true,true,false,true,false,
	| true,true,false,true,false,false,false,
	| false,true,false,true,false,true,false,
	| true,true,false,false,false,false,true,
	| false,false,true,true,false,true,false, |];

nPrecs = 48;
pred = [1,1,1,2,2,2,3,4,5,5,6,6,6,7,8,8,9,9,9,10,11,11,11,12,13,14,14,15,16,17,18,19,19,20,21,21,22,22,22,23,24,25,26,27,28,29,30,31];
succ = [2,3,4,5,6,7,9,30,17,20,11,13,8,24,19,16,10,12,18,14,24,15,16,28,21,26,19,28,20,22,28,27,29,31,29,30,25,27,23,26,25,30,31,31,29,32,32,32];

nUnrels = 300;
unpred = [2,2,2,2,2,2,2,3,3,3,3,3,3,3,3,3,3,3,3,3,3,3,3,3,4,4,4,4,4,4,4,4,4,4,4,4,4,4,4,4,4,4,4,4,4,4,4,4,4,4,5,5,5,5,5,5,5,5,5,5,5,5,5,5,5,5,5,6,6,6,6,6,6,6,6,6,6,7,7,7,7,7,7,7,7,7,7,7,7,7,7,7,7,7,7,7,7,7,8,8,8,8,8,8,8,8,8,8,8,8,8,8,8,8,8,9,9,9,9,9,9,9,9,9,9,9,9,10,10,10,10,10,10,10,10,10,10,10,10,10,10,10,11,11,11,11,11,11,11,11,11,11,11,12,12,12,12,12,12,12,12,12,12,12,12,12,12,12,12,12,13,13,13,13,13,13,13,13,13,13,13,13,13,13,13,14,14,14,14,14,14,14,14,14,14,14,14,15,15,15,15,15,15,15,15,15,15,15,15,15,15,16,16,16,16,16,16,16,16,16,16,16,16,16,17,17,17,17,17,17,17,18,18,18,18,18,18,18,18,18,18,18,19,19,19,19,19,19,19,19,19,20,20,20,20,20,20,20,20,20,20,21,21,21,21,21,21,21,21,22,22,22,23,23,23,23,23,23,24,24,24,24,24,25,25,25,25,25,26,26,26,26,27,27,27,28,28,29,29,30];
unsucc = [3,4,9,10,12,14,18,4,5,6,7,8,11,13,15,16,17,20,21,22,23,24,25,30,5,6,7,8,9,10,11,12,13,14,15,16,17,18,19,20,21,22,23,24,25,26,27,28,29,31,6,7,8,9,10,11,12,13,14,15,16,18,19,21,24,28,29,7,9,10,12,14,17,18,22,23,26,8,9,10,11,12,13,14,15,16,17,18,19,20,21,22,23,26,27,28,29,31,9,10,11,12,13,14,15,17,18,21,22,23,24,25,26,28,30,11,13,15,16,17,20,21,22,23,24,25,30,11,12,13,15,16,17,18,20,21,22,23,24,25,28,30,12,13,14,17,18,19,21,22,23,26,27,13,14,15,16,17,18,19,20,21,22,23,24,25,26,27,30,31,14,15,16,17,18,19,20,22,23,24,25,26,27,28,31,15,16,17,18,20,21,22,23,24,25,28,30,16,17,18,19,20,21,22,23,24,25,26,27,30,31,17,18,19,21,22,23,24,25,26,27,28,29,30,18,19,20,21,24,28,29,19,20,21,22,23,24,25,26,27,30,31,20,21,22,23,24,25,26,28,30,21,22,23,24,25,26,27,28,29,30,22,23,24,25,26,27,28,31,24,28,29,24,25,27,28,29,30,26,27,28,29,31,26,27,28,29,31,27,28,29,30,28,29,30,30,31,30,31,31];

USEFUL_RES = [{},
	{1,2,3,4,5,6,7,8,9,10},
	{3,4,9},
	{1,2,3,4,5,6,8,10},
	{1,5,7,9},
	{1,2,3,4,5,6,7,8,9,10},
	{1,2,3,4,5,6,7,8,9,10},
	{1,2,3,4,5,6,8,10},
	{3,4,9},
	{1,2,3,4,5,6,7,8,9,10},
	{1,2,5,6,7,8,9,10},
	{1,2,3,4,5,6,7,8,9,10},
	{1,2,3,4,5,6,7,8,9,10},
	{1,2,3,4,5,6,7,8,10},
	{1,2,3,4,5,6,7,8,10},
	{1,2,3,4,5,6,7,8,9,10},
	{1,2,3,4,5,6,7,8,10},
	{1,2,3,4,5,6,7,8,10},
	{1,2,3,4,5,6,7,8,9,10},
	{1,2,5,6,7,8,10},
	{1,2,3,4,5,6,7,9,10},
	{1,2,3,5,6,7,8,9,10},
	{1,2,3,4,5,6,7,8,9,10},
	{1,2,3,4,5,6,7,8,10},
	{1,2,3,5,6,7,8,10},
	{7,8,9},
	{2,3,4,6,8,10},
	{1,2,3,4,5,6,7,8,9,10},
	{1,2,3,4,5,6,7,8,9,10},
	{1,2,3,5,6,7,8,9,10},
	{1,2,3,4,5,6,7,8,9,10},
	{}];

POTENTIAL_ACT = [{2,4,5,6,7,8,10,11,12,13,14,15,16,17,18,19,20,21,22,23,24,25,28,29,30,31},
	{2,4,6,7,8,10,11,12,13,14,15,16,17,18,19,20,21,22,23,24,25,27,28,29,30,31},
	{2,3,4,6,7,8,9,10,12,13,14,15,16,17,18,19,21,22,23,24,25,27,28,29,30,31},
	{2,3,4,6,7,8,9,10,12,13,14,15,16,17,18,19,21,23,24,27,28,29,31},
	{2,4,5,6,7,8,10,11,12,13,14,15,16,17,18,19,20,21,22,23,24,25,28,29,30,31},
	{2,4,6,7,8,10,11,12,13,14,15,16,17,18,19,20,21,22,23,24,25,27,28,29,30,31},
	{2,5,6,7,10,11,12,13,14,15,16,17,18,19,20,21,22,23,24,25,26,28,29,30,31},
	{2,4,6,7,8,10,11,12,13,14,15,16,17,18,19,20,22,23,24,25,26,27,28,29,30,31},
	{2,3,5,6,7,9,10,11,12,13,16,19,21,22,23,26,28,29,30,31},
	{2,4,6,7,8,10,11,12,13,14,15,16,17,18,19,20,21,22,23,24,25,27,28,29,30,31}];
